&CONTROL
  calculation = 'cp',
  restart_mode = 'reset_counters',
  ndr = 52,
  ndw = 53,
  nstep  = 100,
  iprint = 10,
  isave  = 100,
  tstress = .TRUE.,
  tprnfor = .TRUE.,
  dt    = 8,
  etot_conv_thr = 1.d-7,
  ekin_conv_thr = 1.d-5,
  prefix = 'Ag8_MgO'
  pseudo_dir = './'
/
&SYSTEM
  ibrav = 0,
  nbnd=460,
  nat  =216,
  ntyp =3,
  ecutwfc = 50,
  ecutrho = 400,
  nr1b= 30, nr2b = 30, nr3b = 30,
  nspin=1,
/
&ELECTRONS
  emass = 300.d0,
  emass_cutoff = 2.5d0,
  orthogonalization = 'ortho',
  ortho_max = 100,
  electron_dynamics = 'damp',
  electron_damping = 0.05
  electron_temperature = 'not_controlled',
/
&IONS
  ion_dynamics = 'sd',
  ion_temperature = 'not_controlled',
/
ATOMIC_SPECIES
 O  2.0 O.pz-n-rrkjus_psl.0.1.UPF
 Ag 2.0 Ag.pz-d-rrkjus.UPF 
 Mg 2.0 Mg.pz-bhs.UPF
ATOMIC_POSITIONS (angstrom)
Ag       5.1032653270      5.1787270648      7.3352486864                 
Ag       5.1032653270      7.2843272123      5.2296485677                 
Ag       7.2088657218      5.1787271568      5.2296485677                 
Ag       7.2088654457      7.2843273587      5.2296485677                 
Ag       7.2088654457      5.1787270648      7.3352486864                 
Ag       5.1032652350      7.2843272667      7.3352486864                 
Ag       7.2088655377      7.2843271203      7.3352486864                 
Ag       5.1032654191      5.1787271568      5.2296485677                 
Mg      11.4200653148     11.4955274119      9.4408488050                 
Mg      11.4200653148      9.3899271180     11.5464489236                 
Mg       9.3144651041     11.4955273199     11.5464489236                 
Mg       9.3144652882      9.3899272100      9.4408488050                 
Mg      11.4200654989     11.4955275960      5.2296485677                 
Mg      11.4200654989      9.3899273021      7.3352486864                 
Mg       9.3144652882     11.4955275040      7.3352486864                 
Mg       9.3144654723      9.3899273941      5.2296485677                 
Mg      11.4200656829     11.4955277801      1.0184483304                 
Mg      11.4200656829      9.3899274861      3.1240484491                 
Mg       9.3144654723     11.4955276880      3.1240484491                 
Mg       9.3144656563      9.3899275782      1.0184483304                 
Mg      11.4200654989      7.2843271746      9.4408488050                 
Mg      11.4200654989      5.1787268807     11.5464489236                 
Mg       9.3144652882      7.2843270826     11.5464489236                 
Mg       9.3144654723      5.1787269728      9.4408488050                 
Mg      11.4200656829      7.2843273587      5.2296485677                 
Mg      11.4200656829      5.1787270648      7.3352486864                 
Mg       9.3144654723      7.2843272667      7.3352486864                 
Mg       9.3144656563      5.1787271568      5.2296485677                 
Mg      11.4200658670      7.2843275428      1.0184483304                 
Mg      11.4200658670      5.1787272489      3.1240484491                 
Mg       9.3144656563      7.2843274508      3.1240484491                 
Mg       9.3144658404      5.1787273409      1.0184483304                 
Mg      11.4200656829      3.0731269374      9.4408488050                 
Mg      11.4200656829      0.9675266434     11.5464489236                 
Mg       9.3144654723      3.0731268453     11.5464489236                 
Mg       9.3144656563      0.9675267355      9.4408488050                 
Mg      11.4200658670      3.0731271215      5.2296485677                 
Mg      11.4200658670      0.9675268275      7.3352486864                 
Mg       9.3144656563      3.0731270294      7.3352486864                 
Mg       9.3144658404      0.9675269196      5.2296485677                 
Mg      11.4200660511      3.0731273055      1.0184483304                 
Mg      11.4200660511      0.9675270116      3.1240484491                 
Mg       9.3144658404      3.0731272135      3.1240484491                 
Mg       9.3144660245      0.9675271036      1.0184483304                 
Mg       7.2088650775     11.4955274119      9.4408488050                 
Mg       7.2088650775      9.3899271180     11.5464489236                 
Mg       5.1032648668     11.4955273199     11.5464489236                 
Mg       5.1032650509      9.3899272100      9.4408488050                 
Mg       7.2088652616     11.4955275960      5.2296485677                 
Mg       7.2088652616      9.3899273021      7.3352486864                 
Mg       5.1032650509     11.4955275040      7.3352486864                 
Mg       5.1032652350      9.3899273941      5.2296485677                 
Mg       7.2088654457     11.4955277801      1.0184483304                 
Mg       7.2088654457      9.3899274861      3.1240484491                 
Mg       5.1032652350     11.4955276880      3.1240484491                 
Mg       5.1032654191      9.3899275782      1.0184483304                 
Mg       7.2088652616      7.2843271746      9.4408488050                 
Mg       7.2088652616      5.1787268807     11.5464489236                 
Mg       5.1032650509      7.2843270826     11.5464489236                 
Mg       5.1032652350      5.1787269728      9.4408488050                 
Mg       7.2088656297      7.2843275428      1.0184483304                 
Mg       7.2088656297      5.1787272489      3.1240484491                 
Mg       5.1032654191      7.2843274508      3.1240484491                 
Mg       5.1032656031      5.1787273409      1.0184483304                 
Mg       7.2088654457      3.0731269374      9.4408488050                 
Mg       7.2088654457      0.9675266434     11.5464489236                 
Mg       5.1032652350      3.0731268453     11.5464489236                 
Mg       5.1032654191      0.9675267355      9.4408488050                 
Mg       7.2088656297      3.0731271215      5.2296485677                 
Mg       7.2088656297      0.9675268275      7.3352486864                 
Mg       5.1032654191      3.0731270294      7.3352486864                 
Mg       5.1032656031      0.9675269196      5.2296485677                 
Mg       7.2088658138      3.0731273055      1.0184483304                 
Mg       7.2088658138      0.9675270116      3.1240484491                 
Mg       5.1032656031      3.0731272135      3.1240484491                 
Mg       5.1032657872      0.9675271036      1.0184483304                 
Mg       2.9976648402     11.4955274119      9.4408488050                 
Mg       2.9976648402      9.3899271180     11.5464489236                 
Mg       0.8920646296     11.4955273199     11.5464489236                 
Mg       0.8920648136      9.3899272100      9.4408488050                 
Mg       2.9976650243     11.4955275960      5.2296485677                 
Mg       2.9976650243      9.3899273021      7.3352486864                 
Mg       0.8920648136     11.4955275040      7.3352486864                 
Mg       0.8920649977      9.3899273941      5.2296485677                 
Mg       2.9976652084     11.4955277801      1.0184483304                 
Mg       2.9976652084      9.3899274861      3.1240484491                 
Mg       0.8920649977     11.4955276880      3.1240484491                 
Mg       0.8920651818      9.3899275782      1.0184483304                 
Mg       2.9976650243      7.2843271746      9.4408488050                 
Mg       2.9976650243      5.1787268807     11.5464489236                 
Mg       0.8920648136      7.2843270826     11.5464489236                 
Mg       0.8920649977      5.1787269728      9.4408488050                 
Mg       2.9976652084      7.2843273587      5.2296485677                 
Mg       2.9976652084      5.1787270648      7.3352486864                 
Mg       0.8920649977      7.2843272667      7.3352486864                 
Mg       0.8920651818      5.1787271568      5.2296485677                 
Mg       2.9976653925      7.2843275428      1.0184483304                 
Mg       2.9976653925      5.1787272489      3.1240484491                 
Mg       0.8920651818      7.2843274508      3.1240484491                 
Mg       0.8920653659      5.1787273409      1.0184483304                 
Mg       2.9976652084      3.0731269374      9.4408488050                 
Mg       2.9976652084      0.9675266434     11.5464489236                 
Mg       0.8920649977      3.0731268453     11.5464489236                 
Mg       0.8920651818      0.9675267355      9.4408488050                 
Mg       2.9976653925      3.0731271215      5.2296485677                 
Mg       2.9976653925      0.9675268275      7.3352486864                 
Mg       0.8920651818      3.0731270294      7.3352486864                 
Mg       0.8920653659      0.9675269196      5.2296485677                 
Mg       2.9976655765      3.0731273055      1.0184483304                 
Mg       2.9976655765      0.9675270116      3.1240484491                 
Mg       0.8920653659      3.0731272135      3.1240484491                 
Mg       0.8920655499      0.9675271036      1.0184483304                 
O        9.3144651961      9.3899271180     11.5464489236                 
O        9.3144651961     11.4955272655      9.4408488050                 
O       11.4200655909      9.3899272100      9.4408488050                 
O       11.4200654068     11.4955271735     11.5464489236                 
O        9.3144653802      9.3899273021      7.3352486864                 
O        9.3144653802     11.4955274496      5.2296485677                 
O       11.4200657750      9.3899273941      5.2296485677                 
O       11.4200655909     11.4955273576      7.3352486864                 
O        9.3144655643      9.3899274861      3.1240484491                 
O        9.3144655643     11.4955276337      1.0184483304                 
O       11.4200659591      9.3899275782      1.0184483304                 
O       11.4200657750     11.4955275417      3.1240484491                 
O        9.3144653802      5.1787268807     11.5464489236                 
O        9.3144653802      7.2843270283      9.4408488050                 
O       11.4200657750      5.1787269728      9.4408488050                 
O       11.4200655909      7.2843269362     11.5464489236                 
O        9.3144655643      5.1787270648      7.3352486864                 
O        9.3144655643      7.2843272123      5.2296485677                 
O       11.4200659591      5.1787271568      5.2296485677                 
O       11.4200657750      7.2843271203      7.3352486864                 
O        9.3144657484      5.1787272489      3.1240484491                 
O        9.3144657484      7.2843273964      1.0184483304                 
O       11.4200661431      5.1787273409      1.0184483304                 
O       11.4200659591      7.2843273044      3.1240484491                 
O        9.3144655643      0.9675266434     11.5464489236                 
O        9.3144655643      3.0731267910      9.4408488050                 
O       11.4200659591      0.9675267355      9.4408488050                 
O       11.4200657750      3.0731266990     11.5464489236                 
O        9.3144657484      0.9675268275      7.3352486864                 
O        9.3144657484      3.0731269751      5.2296485677                 
O       11.4200661431      0.9675269196      5.2296485677                 
O       11.4200659591      3.0731268830      7.3352486864                 
O        9.3144659325      0.9675270116      3.1240484491                 
O        9.3144659325      3.0731271591      1.0184483304                 
O       11.4200663272      0.9675271036      1.0184483304                 
O       11.4200661431      3.0731270671      3.1240484491                 
O        5.1032649589      9.3899271180     11.5464489236                 
O        5.1032649589     11.4955272655      9.4408488050                 
O        7.2088653536      9.3899272100      9.4408488050                 
O        7.2088651695     11.4955271735     11.5464489236                 
O        5.1032651430      9.3899273021      7.3352486864                 
O        5.1032651430     11.4955274496      5.2296485677                 
O        7.2088655377      9.3899273941      5.2296485677                 
O        7.2088653536     11.4955273576      7.3352486864                 
O        5.1032653270      9.3899274861      3.1240484491                 
O        5.1032653270     11.4955276337      1.0184483304                 
O        7.2088657218      9.3899275782      1.0184483304                 
O        7.2088655377     11.4955275417      3.1240484491                 
O        5.1032651430      5.1787268807     11.5464489236                 
O        5.1032651430      7.2843270283      9.4408488050                 
O        7.2088655377      5.1787269728      9.4408488050                 
O        7.2088653536      7.2843269362     11.5464489236                 
O        5.1032655111      5.1787272489      3.1240484491                 
O        5.1032655111      7.2843273964      1.0184483304                 
O        7.2088659059      5.1787273409      1.0184483304                 
O        7.2088657218      7.2843273044      3.1240484491                 
O        5.1032653270      0.9675266434     11.5464489236                 
O        5.1032653270      3.0731267910      9.4408488050                 
O        7.2088657218      0.9675267355      9.4408488050                 
O        7.2088655377      3.0731266990     11.5464489236                 
O        5.1032655111      0.9675268275      7.3352486864                 
O        5.1032655111      3.0731269751      5.2296485677                 
O        7.2088659059      0.9675269196      5.2296485677                 
O        7.2088657218      3.0731268830      7.3352486864                 
O        5.1032656952      0.9675270116      3.1240484491                 
O        5.1032656952      3.0731271591      1.0184483304                 
O        7.2088660899      0.9675271036      1.0184483304                 
O        7.2088659059      3.0731270671      3.1240484491                 
O        0.8920647216      9.3899271180     11.5464489236                 
O        0.8920647216     11.4955272655      9.4408488050                 
O        2.9976651164      9.3899272100      9.4408488050                 
O        2.9976649323     11.4955271735     11.5464489236                 
O        0.8920649057      9.3899273021      7.3352486864                 
O        0.8920649057     11.4955274496      5.2296485677                 
O        2.9976653004      9.3899273941      5.2296485677                 
O        2.9976651164     11.4955273576      7.3352486864                 
O        0.8920650898      9.3899274861      3.1240484491                 
O        0.8920650898     11.4955276337      1.0184483304                 
O        2.9976654845      9.3899275782      1.0184483304                 
O        2.9976653004     11.4955275417      3.1240484491                 
O        0.8920649057      5.1787268807     11.5464489236                 
O        0.8920649057      7.2843270283      9.4408488050                 
O        2.9976653004      5.1787269728      9.4408488050                 
O        2.9976651164      7.2843269362     11.5464489236                 
O        0.8920650898      5.1787270648      7.3352486864                 
O        0.8920650898      7.2843272123      5.2296485677                 
O        2.9976654845      5.1787271568      5.2296485677                 
O        2.9976653004      7.2843271203      7.3352486864                 
O        0.8920652738      5.1787272489      3.1240484491                 
O        0.8920652738      7.2843273964      1.0184483304                 
O        2.9976656686      5.1787273409      1.0184483304                 
O        2.9976654845      7.2843273044      3.1240484491                 
O        0.8920650898      0.9675266434     11.5464489236                 
O        0.8920650898      3.0731267910      9.4408488050                 
O        2.9976654845      0.9675267355      9.4408488050                 
O        2.9976653004      3.0731266990     11.5464489236                 
O        0.8920652738      0.9675268275      7.3352486864                 
O        0.8920652738      3.0731269751      5.2296485677                 
O        2.9976656686      0.9675269196      5.2296485677                 
O        2.9976654845      3.0731268830      7.3352486864                 
O        0.8920654579      0.9675270116      3.1240484491                 
O        0.8920654579      3.0731271591      1.0184483304                 
O        2.9976658527      0.9675271036      1.0184483304                 
O        2.9976656686      3.0731270671      3.1240484491                 
           
               

CELL_PARAMETERS (angstrom) 
12.63360   0.00000   0.00000
 0.00000  12.63360   0.00000
 0.00000   0.00000  12.63360
